(declare-fun X0 () Int)
(declare-fun X1 () Int)
(declare-fun X2 () Int)
(declare-fun X3 () Int)
(declare-fun X4 () Int)
(declare-fun X5 () Int)
(declare-fun X6 () Int)
(declare-fun X7 () Int)
(declare-fun X8 () Int)
(declare-fun X9 () Int)
(declare-fun X10 () Int)
(declare-fun X11 () Int)
(declare-fun X12 () Int)
(declare-fun X13 () Int)
(declare-fun X14 () Int)
(declare-fun X15 () Int)
(declare-fun X16 () Int)
(assert (<= (- X1 X0) 1))
(assert (>= (- X1 X0) 0))
(assert (<= (- X2 X0) 2))
(assert (>= (- X2 X0) 1))
(assert (<= (- X3 X0) 5))
(assert (>= (- X3 X0) 2))
(assert (<= (- X4 X0) 7))
(assert (>= (- X4 X0) 5))
(assert (<= (- X5 X0) 10))
(assert (>= (- X5 X0) 7))
(assert (<= (- X6 X0) 11))
(assert (>= (- X6 X0) 10))
(assert (<= (- X7 X0) 12))
(assert (>= (- X7 X0) 11))
(assert (<= (- X8 X0) 15))
(assert (>= (- X8 X0) 12))
(assert (<= (- X9 X0) 18))
(assert (>= (- X9 X0) 15))
(assert (<= (- X10 X0) 20))
(assert (>= (- X10 X0) 18))
(assert (<= (- X11 X0) 22))
(assert (>= (- X11 X0) 20))
(assert (<= (- X12 X0) 25))
(assert (>= (- X12 X0) 22))
(assert (<= (- X13 X0) 27))
(assert (>= (- X13 X0) 25))
(assert (<= (- X14 X0) 28))
(assert (>= (- X14 X0) 27))
(assert (<= (- X15 X0) 30))
(assert (>= (- X15 X0) 28))
(assert (<= (- X16 X0) 31))
(assert (>= (- X16 X0) 30))
(check-sat)
